
Gurobi 10.0.1 (win64) logging started Sat Sep  9 15:28:41 2023

Set parameter LogFile to value "results-heuristic-start//log/URT_10_deadline.log"
Gurobi Optimizer version 10.0.1 build v10.0.1rc0 (win64)

CPU model: AMD Ryzen 7 3700X 8-Core Processor, instruction set [SSE2|AVX|AVX2]
Thread count: 8 physical cores, 16 logical processors, using up to 16 threads

Optimize a model with 222 rows, 201 columns and 804 nonzeros
Model fingerprint: 0xdba36a40
Model has 1 quadratic constraint
Variable types: 24 continuous, 177 integer (176 binary)
Coefficient statistics:
  Matrix range     [1e+00, 1e+06]
  QMatrix range    [1e+00, 1e+00]
  QLMatrix range   [1e+00, 1e+01]
  Objective range  [1e+00, 1e+00]
  Bounds range     [1e+00, 1e+00]
  RHS range        [1e+00, 3e+06]

Warning: Completing partial solution with 165 unfixed non-continuous variables out of 177
User MIP start produced solution with objective 791 (0.01s)
Loaded user MIP start with objective 791

Presolve removed 44 rows and 114 columns
Presolve time: 0.00s
Presolved: 187 rows, 95 columns, 775 nonzeros
Variable types: 32 continuous, 63 integer (62 binary)

Root relaxation: objective 0.000000e+00, 36 iterations, 0.00 seconds (0.00 work units)

    Nodes    |    Current Node    |     Objective Bounds      |     Work
 Expl Unexpl |  Obj  Depth IntInf | Incumbent    BestBd   Gap | It/Node Time

     0     0    0.00000    0    2  791.00000    0.00000   100%     -    0s
H    0     0                      44.0000000    0.00000   100%     -    0s
     0     0    0.00000    0    6   44.00000    0.00000   100%     -    0s
     0     0    0.00000    0    6   44.00000    0.00000   100%     -    0s
     0     0    0.00000    0    2   44.00000    0.00000   100%     -    0s
     0     0    0.00000    0    6   44.00000    0.00000   100%     -    0s
     0     0    0.00000    0    8   44.00000    0.00000   100%     -    0s
H    0     0                      43.0000000    0.00000   100%     -    0s
H    0     0                      38.0000000    0.00000   100%     -    0s
     0     0    0.00000    0   11   38.00000    0.00000   100%     -    0s
     0     0    3.47512    0   15   38.00000    3.47512  90.9%     -    0s
     0     0    4.00000    0    7   38.00000    4.00000  89.5%     -    0s
     0     0    4.99205    0   10   38.00000    4.99205  86.9%     -    0s
     0     0    5.24163    0   14   38.00000    5.24163  86.2%     -    0s
     0     0    5.24163    0   14   38.00000    5.24163  86.2%     -    0s
     0     0    5.49955    0   10   38.00000    5.49955  85.5%     -    0s
H    0     0                      37.0000000    5.49955  85.1%     -    0s
     0     0    5.49955    0   11   37.00000    5.49955  85.1%     -    0s
     0     0    5.49955    0    9   37.00000    5.49955  85.1%     -    0s
     0     0    5.49955    0   14   37.00000    5.49955  85.1%     -    0s
     0     0    5.49955    0   14   37.00000    5.49955  85.1%     -    0s
     0     0    5.49955    0   14   37.00000    5.49955  85.1%     -    0s
     0     0    5.79952    0   14   37.00000    5.79952  84.3%     -    0s
     0     0    5.79952    0   12   37.00000    5.79952  84.3%     -    0s
     0     1    5.79952    0   12   37.00000    5.79952  84.3%     -    0s
H  383   134                      36.0000000    8.00000  77.8%   8.0    0s
H  523   155                      35.0000000   10.00000  71.4%   7.3    0s
H10282   304                      34.0000000   15.98400  53.0%   1.9    0s
*14261   260              19      33.0000000   19.99951  39.4%   1.8    0s

Cutting planes:
  Learned: 5

Explored 16819 nodes (33150 simplex iterations) in 1.35 seconds (0.37 work units)
Thread count was 16 (of 16 available processors)

Solution count 10: 33 33 34 ... 791

Optimal solution found (tolerance 1.00e-04)
Best objective 3.300000000000e+01, best bound 3.300000000000e+01, gap 0.0000%
Warning: constraint name "precedence between 0,2 to 0,0 if x_[j,l,h,z,i]=1" has a space
Warning: constraint name "precedence between 0,2 to 0,0 if x_[j,l,h,z,i]=1" has a space
Warning: default constraint names used to write mps file
